
Log started (V12.10.0.0) Fri Apr  2 09:03:41 2021

Warning, line 1952: Name 's136' does not exist.
Warning, line 1953: Name 's225' does not exist.
Warning, line 1954: Name 's194' does not exist.
Warning, line 1955: Name 's22' does not exist.
Warning, line 1956: Name 's145' does not exist.
Warning, line 1957: Name 's161' does not exist.

Problem 'asset.lp' read.
Read time = 0.01 sec. (0.16 ticks)
New value for default parallel thread count: 1
New value for time limit in seconds: 300
Version identifier: 12.10.0.0 | 2019-11-26 | 843d4de
CPXPARAM_Threads                                 1
CPXPARAM_TimeLimit                               300
Found incumbent of value 0.000000 after 0.00 sec. (0.05 ticks)
Tried aggregator 3 times.
MIP Presolve eliminated 469 rows and 223 columns.
MIP Presolve modified 1807 coefficients.
Aggregator did 533 substitutions.
Reduced MIP has 568 rows, 753 columns, and 2885 nonzeros.
Reduced MIP has 672 binaries, 53 generals, 0 SOSs, and 0 indicators.
Presolve time = 0.01 sec. (6.88 ticks)
Probing fixed 7 vars, tightened 2 bounds.
Probing time = 0.01 sec. (7.91 ticks)
Cover probing fixed 0 vars, tightened 2 bounds.
Tried aggregator 1 time.
Detecting symmetries...
MIP Presolve eliminated 31 rows and 18 columns.
MIP Presolve modified 240 coefficients.
Reduced MIP has 537 rows, 731 columns, and 2723 nonzeros.
Reduced MIP has 659 binaries, 47 generals, 0 SOSs, and 0 indicators.
Presolve time = 0.00 sec. (2.81 ticks)
Probing time = 0.00 sec. (2.93 ticks)
Clique table members: 1947.
MIP emphasis: balance optimality and feasibility.
MIP search method: dynamic search.
Parallel mode: none, using 1 thread.
Root relaxation solution time = 0.01 sec. (11.40 ticks)

        Nodes                                         Cuts/
   Node  Left     Objective  IInf  Best Integer    Best Bound    ItCnt     Gap

*     0+    0                            0.0000      625.0000              --- 
      0     0      357.6903   148        0.0000      357.6903      533     --- 
      0     0      322.7424   148        0.0000     Cuts: 185      671     --- 
      0     0      308.5112   148        0.0000     Cuts: 135      791     --- 
      0     0      300.3111   148        0.0000     Cuts: 110      865     --- 
      0     0      298.7734   148        0.0000      Cuts: 72      927     --- 
      0     0      297.2544   148        0.0000      Cuts: 66      974     --- 
      0     0      296.2690   148        0.0000      Cuts: 44     1015     --- 
      0     0      293.8516   148        0.0000      Cuts: 58     1087     --- 
      0     0      291.4428   148        0.0000      Cuts: 64     1181     --- 
      0     0      291.0017   148        0.0000      Cuts: 66     1249     --- 
      0     0      290.1751   148        0.0000      Cuts: 43     1309     --- 
      0     0      289.2267   148        0.0000      Cuts: 70     1368     --- 
      0     0      287.3985   148        0.0000      Cuts: 42     1471     --- 
      0     0      286.5263   148        0.0000      Cuts: 60     1535     --- 
      0     0      286.0743   148        0.0000      Cuts: 26     1578     --- 
      0     0      285.2335   148        0.0000      Cuts: 35     1634     --- 
      0     0      284.3795   148        0.0000      Cuts: 63     1709     --- 
      0     0      284.0798   148        0.0000      Cuts: 46     1766     --- 
      0     0      283.7792   148        0.0000      Cuts: 48     1824     --- 
      0     0      282.6963   148        0.0000      Cuts: 40     1879     --- 
      0     0      282.4929   148        0.0000      Cuts: 23     1905     --- 
      0     0      282.3846   148        0.0000      Cuts: 34     1938     --- 
      0     0      282.2909   148        0.0000      Cuts: 47     1993     --- 
      0     0      282.0949   148        0.0000      Cuts: 48     2067     --- 
      0     0      281.7545   148        0.0000      Cuts: 46     2139     --- 
      0     0      281.0400   148        0.0000      Cuts: 83     2216     --- 
      0     0      280.8075   148        0.0000      Cuts: 42     2246     --- 
      0     0      280.3189   148        0.0000      Cuts: 42     2314     --- 
      0     0      279.6485   148        0.0000      Cuts: 60     2380     --- 
      0     0      279.5932   148        0.0000      Cuts: 19     2408     --- 
      0     0      279.4593   148        0.0000      Cuts: 17     2452     --- 
*     0+    0                           40.0000      279.4593           598.65%
*     0+    0                          105.0000      279.4593           166.15%
      0     0        cutoff            105.0000      279.4593     2452  166.15%
      0     0      279.4234   148      105.0000      Cuts: 40     2487  166.12%
*     0+    0                          110.0000      279.4234           154.02%
*     0+    0                          120.0000      279.4234           132.85%
*     0+    0                          135.0000      279.4234           106.98%
      0     0        cutoff            135.0000      279.4234     2487  106.98%
      0     2      279.4234   176      135.0000      279.4234     2487  106.98%
Elapsed time = 0.43 sec. (382.26 ticks, tree = 0.01 MB, solutions = 5)
*    10+   10                          170.0000      278.8370            64.02%
*    47    43      integral     0      175.0000      278.8370     4298   59.34%
*   115    98      integral     0      180.0000      278.8087     5722   54.89%
*   130+  106                          185.0000      276.9867            49.72%
    160   134      234.9398    68      185.0000      276.2079     6749   49.30%
*   230+  177                          195.0000      275.8092            41.44%
*   233   163      integral     0      200.0000      275.8092     7755   37.90%
*   333+  222                          205.0000      273.3371            33.34%
    395   270      267.9950   116      205.0000      272.2255    10545   32.79%
    637   435      219.8343    62      205.0000      263.4997    15024   28.54%
    914   629      220.7641    47      205.0000      256.0230    19674   24.89%

Performing restart 1

Repeating presolve.
Tried aggregator 2 times.
MIP Presolve eliminated 2 rows and 0 columns.
MIP Presolve modified 616 coefficients.
Aggregator did 9 substitutions.
Reduced MIP has 526 rows, 722 columns, and 2287 nonzeros.
Reduced MIP has 650 binaries, 47 generals, 0 SOSs, and 0 indicators.
Presolve time = 0.01 sec. (3.32 ticks)
Tried aggregator 1 time.
Reduced MIP has 526 rows, 722 columns, and 2287 nonzeros.
Reduced MIP has 650 binaries, 47 generals, 0 SOSs, and 0 indicators.
Presolve time = 0.00 sec. (1.81 ticks)
Represolve time = 0.03 sec. (21.07 ticks)
    964     0      265.5251   173      205.0000     Cuts: 171    21843   24.35%
    964     0      244.6231   173      205.0000     Cuts: 129    22055   19.33%
    964     0      239.6495   173      205.0000     Cuts: 136    22132   16.90%
    964     0      235.1678   173      205.0000      Cuts: 69    22199   14.72%
    964     0      232.9622   173      205.0000      Cuts: 51    22262   13.64%
    964     0      232.2229   173      205.0000      Cuts: 52    22326   13.28%
    964     0      229.9093   173      205.0000      Cuts: 56    22384   12.15%
    964     0      228.0441   173      205.0000      Cuts: 47    22474   11.24%
    964     0      227.0627   173      205.0000      Cuts: 79    22576   10.76%
    964     0      226.8179   173      205.0000      Cuts: 48    22637   10.64%
    964     0      226.5499   173      205.0000      Cuts: 23    22671   10.51%
    964     0      226.2408   173      205.0000      Cuts: 28    22727   10.36%
    964     0      225.9259   173      205.0000      Cuts: 21    22777   10.21%
    964     0      225.9143   173      205.0000      Cuts: 29    22800   10.20%
    964     0      225.8267   173      205.0000      Cuts: 13    22833   10.16%
    964     0      225.6416   173      205.0000      Cuts: 14    22873   10.07%
    964     0      225.5604   173      205.0000      Cuts: 20    22916   10.03%
    964     0      225.5299   173      205.0000      Cuts: 15    22929   10.01%
    964     0      225.4374   173      205.0000      Cuts: 10    22963    9.97%
    964     0      225.4279   173      205.0000      Cuts: 11    22974    9.96%
    964     0      225.3825   173      205.0000      Cuts: 10    23007    9.94%
    964     0      225.0883   173      205.0000      Cuts: 16    23023    9.80%
    964     0      225.0600   173      205.0000      Cuts: 13    23039    9.79%
    964     0      225.0458   173      205.0000       Cuts: 7    23055    9.78%
    964     0      224.9922   173      205.0000      Cuts: 29    23088    9.75%
    964     0      224.9823   173      205.0000       Cuts: 7    23111    9.75%
    964     2      224.9823   116      205.0000      224.9452    23111    9.73%
    983    11      224.5979   105      205.0000      224.6329    23561    9.58%
   1014    21      215.3103    70      205.0000      223.2218    24530    8.89%
   1105    42      212.5000    12      205.0000      218.4689    25872    6.57%
   1229    47      210.0000    20      205.0000      212.5000    27343    3.66%

GUB cover cuts applied:  1
Clique cuts applied:  128
Cover cuts applied:  10
Implied bound cuts applied:  22
Flow cuts applied:  4
Mixed integer rounding cuts applied:  26
Zero-half cuts applied:  39
Lift and project cuts applied:  10
Gomory fractional cuts applied:  9

Root node processing (before b&c):
  Real time             =    0.43 sec. (382.39 ticks)
Sequential b&c:
  Real time             =    2.69 sec. (2975.46 ticks)
                          ------------
Total (root+branch&cut) =    3.12 sec. (3357.85 ticks)

Solution pool: 13 solutions saved.

MIP - Integer optimal solution:  Objective =  2.0500000000e+02
Solution time =    3.12 sec.  Iterations = 27689  Nodes = 1297
Deterministic time = 3357.85 ticks  (1076.82 ticks/sec)


Incumbent solution
Variable Name           Solution Value
F                           205.000000
y264                          1.000000
y61                           1.000000
y33                           1.000000
y65                           1.000000
y29                           1.000000
y3                            1.000000
y186                          1.000000
y265                          1.000000
y258                          1.000000
y166                          1.000000
y147                          1.000000
x129x65x1                     1.000000
x13x186x1                     2.000000
x156x258x1                    2.000000
x138x33x1                     1.000000
x70x264x2                     1.000000
x70x29x2                      1.000000
x92x33x2                      1.000000
x63x264x2                     1.000000
x63x29x2                      1.000000
x129x65x3                     1.000000
x124x265x3                    1.000000
x138x61x3                     1.000000
x92x61x3                      1.000000
x264x0x2                      1.000000
x264x166x2                    1.000000
x61x265x3                     1.000000
x61x147x3                     1.000000
x33x3x1                       1.000000
x33x3x2                       1.000000
x65x0x1                       1.000000
x65x0x3                       1.000000
x29x166x2                     1.000000
x29x147x2                     1.000000
x3x0x1                        1.000000
x3x0x2                        1.000000
x186x0x1                      2.000000
x265x0x3                      2.000000
x258x0x1                      2.000000
x166x0x2                      2.000000
x147x0x2                      1.000000
x147x0x3                      1.000000
s129                          7.310721
s155                          7.550000
s143                          7.720000
s112                          8.779298
s33                           7.820000
s65                           8.773803
z129z65z1                     1.000000
z129z65z3                     1.000000
s232                          8.860000
s125                          7.930000
s209                          7.950000
s3                            9.000000
s204                          8.010000
s262                          9.030000
s6                            9.050000
s159                          8.050000
s184                          9.050000
s58                           9.110000
s62                           8.110000
s108                          8.110000
s211                          8.110000
s234                          9.140000
s186                          9.150000
s265                          9.190000
s240                          8.210000
s50                           9.220000
s258                          9.250000
z129z258z1                    1.000000
s5                            9.330000
s248                          9.340000
s20                           9.350000
s74                           9.350000
s170                          9.350000
s188                          9.430000
s128                          9.470000
z129z128z3                    1.000000
s147                          9.490000
s13                           7.884907
z13z186z1                     1.000000
z13z248z1                     1.000000
s124                          7.290000
z124z265z3                    1.000000
z124z128z3                    1.000000
s156                          7.679329
z156z258z1                    1.000000
z156z248z1                    1.000000
s138                          5.402180
s88                           7.560000
s64                           7.580000
s26                           7.590000
z138z26z1                     1.000000
s54                           7.610000
s93                           7.620000
s61                           7.690000
z138z61z3                     1.000000
s82                           7.720000
z138z143z3                    1.000000
s121                          7.730000
s180                          7.730000
s111                          7.740000
s96                           7.750000
s178                          8.780000
s25                           7.800000
z138z33z1                     1.000000
z138z209z3                    1.000000
z138z6z3                      1.000000
z138z184z1                    1.000000
z138z58z3                     1.000000
z138z211z3                    1.000000
z138z234z1                    1.000000
z138z186z1                    1.000000
z138z265z3                    1.000000
z138z258z1                    1.000000
z138z248z1                    1.000000
z138z20z3                     1.000000
z138z128z3                    1.000000
s70                           5.260000
s73                           7.560000
z70z73z2                      1.000000
s264                          7.640000
z70z264z2                     1.000000
s206                          7.700000
z70z206z2                     1.000000
s29                           7.950000
z70z29z2                      1.000000
s166                          9.350000
z70z166z2                     1.000000
s92                           5.280000
z92z73z2                      1.000000
z92z264z2                     1.000000
z92z61z3                      1.000000
z92z206z2                     1.000000
z92z143z3                     1.000000
z92z33z2                      1.000000
z92z29z2                      1.000000
z92z209z3                     1.000000
z92z6z3                       1.000000
z92z58z3                      1.000000
z92z211z3                     1.000000
z92z265z3                     1.000000
z92z20z3                      1.000000
z92z166z2                     1.000000
z92z128z3                     1.000000
s63                           5.891040
z63z73z2                      1.000000
z63z264z2                     1.000000
z63z206z2                     1.000000
z63z29z2                      1.000000
z63z166z2                     1.000000
z155z258z1                    1.000000
z73z166z2                     1.000000
z26z258z1                     1.000000
z54z258z1                     1.000000
z54z128z3                     1.000000
z93z128z3                     1.000000
z264z166z2                    1.000000
z61z265z3                     1.000000
z61z128z3                     1.000000
z61z147z3                     1.000000
z206z166z2                    1.000000
z33z3z1                       1.000000
z33z3z2                       1.000000
z29z166z2                     1.000000
z29z147z2                     1.000000
All other variables in the range 1-1511 are 0.
